; benchmark generated from python API
(set-info :status unknown)
(declare-fun Y () (_ BitVec 16))
(declare-fun X () (_ BitVec 16))
(assert
 (let ((?x24 (concat (ite (bvslt X (_ bv0 16)) (_ bv1766847064778384329583297500742918515827483896875618958121606201292619775 240) (_ bv0 240)) X)))
 (let (($x43 (bvsgt ?x24 (bvadd (_ bv32767 256) (concat (ite (bvslt Y (_ bv0 16)) (_ bv1766847064778384329583297500742918515827483896875618958121606201292619775 240) (_ bv0 240)) Y)))))
 (let ((?x19 (ite (bvslt (concat (ite (bvslt Y (_ bv0 16)) (_ bv1766847064778384329583297500742918515827483896875618958121606201292619775 240) (_ bv0 240)) Y) (_ bv0 256)) (_ bv1 256) (_ bv0 256))))
 (let ((?x44 (bvand ?x19 (ite $x43 (_ bv1 256) (_ bv0 256)))))
 (let (($x72 (and (distinct ?x44 (_ bv0 256)) true)))
 (let (($x65 (=> (and (bvslt (_ bv0 16) X) (bvslt (_ bv0 16) (bvneg Y))) (bvslt (_ bv0 16) (bvadd X (bvneg Y))))))
 (let (($x56 (bvslt X (_ bv0 16))))
 (let (($x68 (not (ite (= Y (bvshl (_ bv1 16) (_ bv15 16))) $x56 $x65))))
 (and (distinct $x68 $x72) true))))))))))
(check-sat)
